
Gurobi 12.0.2 (win64) logging started Sun Jun  8 11:32:37 2025

Set parameter LogFile to value "C:\Ioana\_uni\honours\slp\algorithm\Main_files\results\others\prox_tubules_new_model\Task_004_Sample002_irr_gurobi.log"
Gurobi Optimizer version 12.0.2 build v12.0.2rc0 (win64 - Windows 11.0 (26100.2))

CPU model: Intel(R) Core(TM) Ultra 5 125H, instruction set [SSE2|AVX|AVX2]
Thread count: 14 physical cores, 18 logical processors, using up to 18 threads

Non-default parameters:
TimeLimit  2200

Optimize a model with 47226 rows, 34499 columns and 146686 nonzeros
Model fingerprint: 0x423cdb28
Variable types: 17254 continuous, 17245 integer (17245 binary)
Coefficient statistics:
  Matrix range     [1e-04, 8e+04]
  Objective range  [1e-04, 9e-01]
  Bounds range     [1e+00, 1e+03]
  RHS range        [1e+00, 1e+00]
Presolve removed 30821 rows and 21541 columns
Presolve time: 0.29s
Presolved: 16405 rows, 12958 columns, 54599 nonzeros
Variable types: 6411 continuous, 6547 integer (6547 binary)

Root relaxation: objective 1.640262e-01, 1390 iterations, 0.09 seconds (0.15 work units)

    Nodes    |    Current Node    |     Objective Bounds      |     Work
 Expl Unexpl |  Obj  Depth IntInf | Incumbent    BestBd   Gap | It/Node Time

     0     0    0.16403    0    9          -    0.16403      -     -    0s
H    0     0                       0.2460313    0.16403  33.3%     -    0s
     0     0    0.22650    0   14    0.24603    0.22650  7.94%     -    0s
     0     0    0.24414    0    2    0.24603    0.24414  0.77%     -    0s

Cutting planes:
  Flow cover: 1

Explored 1 nodes (1483 simplex iterations) in 0.63 seconds (0.72 work units)
Thread count was 18 (of 18 available processors)

Solution count 1: 0.246031 

Optimal solution found (tolerance 1.00e-04)
Best objective 2.460313225026e-01, best bound 2.460313225026e-01, gap 0.0000%
